(define-fun |1_1__R4_Loopback0_INBOUND_SOFTAdd| () Bool
  true)
(define-fun |1_R3_BGP_SINGLE-EXPORT__metric| () Int
  4)
(define-fun |1_R2-StaticRouteAdd-R2,Serial1 --> R4,Serial1| () Bool
  false)
(define-fun |0_R2_OVERALL_BEST_None_routerID| () Int
  0)
(define-fun |1_R4_BGP_SINGLE-EXPORT__permitted| () Bool
  true)
(define-fun |0_0__R4_Loopback0_OUTBOUND_SOFTAdd| () Bool
  true)
(define-fun |1_R3_BGP_IMPORT_Serial1_prefixLength| () Int
  24)
(define-fun |1_1_R2_OVERALL_BEST_NoneBGPExportAddSoft| () Bool
  false)
(define-fun |1_1__R3_Serial1_OUTBOUND_SOFTAdd| () Bool
  true)
(define-fun |1_1_R4_OVERALL_BEST_NoneBGPExportAddSoft| () Bool
  false)
(define-fun |1_R1_BGP_SINGLE-EXPORT__metric| () Int
  1)
(define-fun |1_1__R4_Loopback0_OUTBOUND_SOFTAdd| () Bool
  true)
(define-fun |1_R2_BGP_IMPORT_Serial0_permitted| () Bool
  true)
(define-fun |1_1__R3_Serial1_INBOUND_SOFTAdd| () Bool
  true)
(define-fun |0_4.4.4.0/24OSPF-ExportRemoveSoft0_R4_OVERALL_BEST_None| () Bool
  true)
(define-fun |1_1__R2_Loopback0_INBOUND_SOFTAdd| () Bool
  true)
(define-fun |1_CONTROL-FORWARDING_R4_Serial0| () Bool
  false)
(define-fun |0_R3_BGP_IMPORT_Serial1_prefixLength| () Int
  0)
(define-fun |0_R2_BGP_IMPORT_Serial0_prefixLength| () Int
  0)
(define-fun |1_R2_BGP_SINGLE-EXPORT__prefixLength| () Int
  24)
(define-fun |1_1_R3_OVERALL_BEST_NoneBGPExportAddSoft| () Bool
  false)
(define-fun |1_1__R2_Serial1_OUTBOUND_SOFTAdd| () Bool
  true)
(define-fun |1__reachable-id_R3| () Int
  1)
(define-fun |1_1__R1_Serial0_INBOUND_SOFTAdd| () Bool
  true)
(define-fun R2_BGP_IMPORT_Serial1_localpref_200 () Bool
  true)
(define-fun |0_0__R2_Loopback0_OUTBOUND_SOFTAdd| () Bool
  true)
(define-fun |0_0__R1_Serial0_INBOUND_SOFTAdd| () Bool
  true)
(define-fun |0_icmp-code| () Int
  0)
(define-fun |0_R2_BGP_IMPORT_Serial1_permitted| () Bool
  true)
(define-fun |0_R1_BGP_SINGLE-EXPORT__permitted| () Bool
  true)
(define-fun |0_R2_OVERALL_BEST_None_prefixLength| () Int
  24)
(define-fun |1_R1_BGP_SINGLE-EXPORT__localPref| () Int
  100)
(define-fun |1_4.4.4.0/24OSPF-ExportRemoveSoft1_R4_OVERALL_BEST_None| () Bool
  true)
(define-fun |1_1__R4_Serial0_OUTBOUND_SOFTAdd| () Bool
  true)
(define-fun |0_R2_BGP_IMPORT_Serial1_metric| () Int
  3)
(define-fun |1_R1_BGP_SINGLE-EXPORT__permitted| () Bool
  true)
(define-fun |1_CONTROL-FORWARDING_R1_Serial1| () Bool
  true)
(define-fun |0_1.1.1.0/24Stat-Conn-ExportRemoveSoft0_R1_OVERALL_BEST_None| () Bool
  true)
(define-fun |0_0__R3_Loopback0_OUTBOUND_SOFTAdd| () Bool
  true)
(define-fun |0_0__R2_Serial1_OUTBOUND_SOFTAdd| () Bool
  true)
(define-fun |0_icmp-type| () Int
  0)
(define-fun R2_BGP_IMPORT_Serial1_localpref_199 () Bool
  false)
(define-fun |0_R2_BGP_BEST_None_localPref| () Int
  200)
(define-fun |0__reachable-id_R1| () Int
  2)
(define-fun |1_R2_BGP_IMPORT_Serial1_localPref| () Int
  0)
(define-fun |1_R3_BGP_IMPORT_Serial1_metric| () Int
  3)
(define-fun |0_R3_OVERALL_BEST_None_metric| () Int
  1)
(define-fun |1_R2_OVERALL_BEST_None_history| () (_ BitVec 1)
  #b0)
(define-fun |1_R4_OVERALL_BEST_None_localPref| () Int
  400)
(define-fun |1_CONTROL-FORWARDING_R4_Serial1| () Bool
  true)
(define-fun |0_CONTROL-FORWARDING_R1_Serial0| () Bool
  true)
(define-fun |0_R2_OVERALL_BEST_None_metric| () Int
  0)
(define-fun |0_R3_BGP_IMPORT_Serial1_metric| () Int
  0)
(define-fun |0_R3-StaticRouteAdd-R3,Serial0 --> R1,Serial1| () Bool
  false)
(define-fun |1_R3_BGP_IMPORT_Serial1_localPref| () Int
  400)
(define-fun |1_1__R2_Serial1_INBOUND_SOFTAdd| () Bool
  true)
(define-fun |0_R1_BGP_BEST_None_prefixLength| () Int
  24)
(define-fun |0_R2ImportFilterAddSoft0_R2_BGP_IMPORT_Serial1| () Bool
  true)
(define-fun |1_1__R3_Loopback0_OUTBOUND_SOFTAdd| () Bool
  true)
(define-fun |0_0__R2_Serial1_INBOUND_SOFTAdd| () Bool
  true)
(define-fun |0_0__R4_Loopback0_INBOUND_SOFTAdd| () Bool
  true)
(define-fun |0_0_R4_OVERALL_BEST_NoneBGPExportAddSoft| () Bool
  false)
(define-fun |1_R3_OVERALL_BEST_None_metric| () Int
  3)
(define-fun |0_R2_OVERALL_BEST_None_history| () (_ BitVec 1)
  #b1)
(define-fun R2_BGP_IMPORT_Serial0_localpref_400 () Bool
  true)
(define-fun |0_R4_OVERALL_BEST_None_prefixLength| () Int
  24)
(define-fun |0_R3_BGP_SINGLE-EXPORT__metric| () Int
  2)
(define-fun |1_src-port| () Int
  0)
(define-fun |1_R3_BGP_SINGLE-EXPORT__localPref| () Int
  400)
(define-fun |0_0__R4_Serial0_OUTBOUND_SOFTAdd| () Bool
  true)
(define-fun |1_CONTROL-FORWARDING_R1_Serial0| () Bool
  false)
(define-fun |1_R1_BGP_BEST_None_localPref| () Int
  400)
(define-fun |0_0__R3_Serial0_INBOUND_SOFTAdd| () Bool
  true)
(define-fun |1_R2_BGP_IMPORT_Serial1_prefixLength| () Int
  0)
(define-fun |0_R4_BGP_SINGLE-EXPORT__permitted| () Bool
  true)
(define-fun |0_R3_BGP_SINGLE-EXPORT__prefixLength| () Int
  24)
(define-fun R2_BGP_IMPORT_Serial0_localpref_200 () Bool
  true)
(define-fun |0_0__R1_Serial1_OUTBOUND_SOFTAdd| () Bool
  true)
(define-fun |0_R2_BGP_IMPORT_Serial0_permitted| () Bool
  false)
(define-fun R3_BGP_IMPORT_Serial1_localpref_50 () Bool
  false)
(define-fun |0_R3_BGP_SINGLE-EXPORT__permitted| () Bool
  true)
(define-fun |0_R4_OVERALL_BEST_None_localPref| () Int
  100)
(define-fun |1__reachable-id_R4| () Int
  4)
(define-fun R3_BGP_IMPORT_Serial1_localpref_400 () Bool
  true)
(define-fun R2_BGP_IMPORT_Serial1_localpref_399 () Bool
  false)
(define-fun |1_1__R3_Serial0_OUTBOUND_SOFTAdd| () Bool
  true)
(define-fun |0_R2_BGP_SINGLE-EXPORT__permitted| () Bool
  false)
(define-fun |0_R4-StaticRouteAdd-R4,Serial0 --> R3,Serial1| () Bool
  false)
(define-fun |0_R2_BGP_SINGLE-EXPORT__prefixLength| () Int
  0)
(define-fun |1_dst-port| () Int
  0)
(define-fun |1_R2_OVERALL_BEST_None_routerID| () Int
  16843009)
(define-fun |1_R1_OVERALL_BEST_None_routerID| () Int
  0)
(define-fun |1_1__R1_Serial0_OUTBOUND_SOFTAdd| () Bool
  true)
(define-fun |0_R2ImportFilterAddSoft0_R2_BGP_IMPORT_Serial0| () Bool
  true)
(define-fun |1_R2_BGP_SINGLE-EXPORT__permitted| () Bool
  true)
(define-fun |0_R1_OVERALL_BEST_None_metric| () Int
  0)
(define-fun |0_R1_BGP_BEST_None_localPref| () Int
  100)
(define-fun |0_R1_BGP_BEST_None_metric| () Int
  2)
(define-fun |0_R1-StaticRouteAdd-R1,Serial1 --> R3,Serial0| () Bool
  false)
(define-fun |1_R2_BGP_BEST_None_routerID| () Int
  16843009)
(define-fun |1_2.2.2.0/24Stat-Conn-ExportRemoveSoft1_R2_OVERALL_BEST_None| () Bool
  true)
(define-fun |0_0__R4_Serial1_INBOUND_SOFTAdd| () Bool
  true)
(define-fun |1_1.1.1.0/24Stat-Conn-ExportRemoveSoft1_R1_OVERALL_BEST_None| () Bool
  true)
(define-fun |1__reachable-id_R1| () Int
  2)
(define-fun |1_R1_BGP_BEST_None_metric| () Int
  2)
(define-fun |1_R1-StaticRouteAdd-R1,Serial0 --> R2,Serial0| () Bool
  false)
(define-fun |1_R2-StaticRouteAdd-R2,Serial0 --> R1,Serial0| () Bool
  false)
(define-fun |1_R2_OVERALL_BEST_None_adminDist| () Int
  20)
(define-fun |0_dst-port| () Int
  0)
(define-fun |1__reachable-id_R2| () Int
  3)
(define-fun |0_R2_BGP_SINGLE-EXPORT__localPref| () Int
  0)
(define-fun R2_BGP_IMPORT_Serial0_localpref_49 () Bool
  true)
(define-fun |0_src-port| () Int
  0)
(define-fun |0_0__R2_Serial0_INBOUND_SOFTAdd| () Bool
  true)
(define-fun |1_R1_BGP_SINGLE-EXPORT__prefixLength| () Int
  24)
(define-fun |1_CONTROL-FORWARDING_R3_Serial1| () Bool
  true)
(define-fun |1_CONTROL-FORWARDING_R2_Serial1| () Bool
  false)
(define-fun |0_0_R3_OVERALL_BEST_NoneBGPExportAddSoft| () Bool
  false)
(define-fun |0_0__R1_Loopback0_INBOUND_SOFTAdd| () Bool
  true)
(define-fun |0_R3_OVERALL_BEST_None_routerID| () Int
  16843009)
(define-fun |0_R1_BGP_SINGLE-EXPORT__metric| () Int
  1)
(define-fun |0_R3-StaticRouteAdd-R3,Serial1 --> R4,Serial0| () Bool
  false)
(define-fun |1_1__R4_Serial1_INBOUND_SOFTAdd| () Bool
  true)
(define-fun |0_CONTROL-FORWARDING_R2_Serial0| () Bool
  false)
(define-fun |1_R3_BGP_IMPORT_Serial1_permitted| () Bool
  true)
(define-fun |1_CONTROL-FORWARDING_R2_Serial0| () Bool
  true)
(define-fun |1_1__R2_Loopback0_OUTBOUND_SOFTAdd| () Bool
  true)
(define-fun |0_R1_BGP_SINGLE-EXPORT__prefixLength| () Int
  24)
(define-fun |1_R4_BGP_SINGLE-EXPORT__metric| () Int
  3)
(define-fun |1_R2_BGP_BEST_None_localPref| () Int
  400)
(define-fun |1_R3_OVERALL_BEST_None_localPref| () Int
  400)
(define-fun |1_R4_OVERALL_BEST_None_metric| () Int
  2)
(define-fun |0_0_R2_OVERALL_BEST_NoneBGPExportAddSoft| () Bool
  false)
(define-fun |1_R2_OVERALL_BEST_None_metric| () Int
  1)
(define-fun |1_R2_BGP_IMPORT_Serial0_prefixLength| () Int
  24)
(define-fun |1_R2_BGP_IMPORT_Serial1_permitted| () Bool
  false)
(define-fun |0_R2_BGP_SINGLE-EXPORT__metric| () Int
  0)
(define-fun |0_R1_OVERALL_BEST_None_adminDist| () Int
  0)
(define-fun |0_R3ImportFilterAddSoft0_R3_BGP_IMPORT_Serial1| () Bool
  true)
(define-fun |0_0__R2_Serial0_OUTBOUND_SOFTAdd| () Bool
  true)
(define-fun |1_R4_BGP_SINGLE-EXPORT__prefixLength| () Int
  24)
(define-fun |0_CONTROL-FORWARDING_R4_Serial1| () Bool
  false)
(define-fun |0_R2_OVERALL_BEST_None_adminDist| () Int
  0)
(define-fun |0_R2_BGP_IMPORT_Serial1_prefixLength| () Int
  24)
(define-fun |0_R2_BGP_BEST_None_routerID| () Int
  67372036)
(define-fun |1_1__R2_Serial0_OUTBOUND_SOFTAdd| () Bool
  true)
(define-fun |1_1__R4_Serial0_INBOUND_SOFTAdd| () Bool
  true)
(define-fun |0_R1_OVERALL_BEST_None_localPref| () Int
  100)
(define-fun |0_3.3.3.0/24OSPF-ExportRemoveSoft0_R3_OVERALL_BEST_None| () Bool
  true)
(define-fun |1_ip-protocol| () Int
  0)
(define-fun |1_R1_OVERALL_BEST_None_prefixLength| () Int
  24)
(define-fun R2_BGP_IMPORT_Serial1_localpref_50 () Bool
  false)
(define-fun |1_R4_BGP_SINGLE-EXPORT__localPref| () Int
  400)
(define-fun |1_1__R2_Serial0_INBOUND_SOFTAdd| () Bool
  true)
(define-fun |1_R3-StaticRouteAdd-R3,Serial1 --> R4,Serial0| () Bool
  false)
(define-fun |0_R1-StaticRouteAdd-R1,Serial0 --> R2,Serial0| () Bool
  false)
(define-fun |1_R3ImportFilterAddSoft1_R3_BGP_IMPORT_Serial1| () Bool
  true)
(define-fun |0_R2_BGP_BEST_None_metric| () Int
  3)
(define-fun |0_R1_BGP_BEST_None_routerID| () Int
  50529027)
(define-fun |0_0__R1_Loopback0_OUTBOUND_SOFTAdd| () Bool
  true)
(define-fun |1_R2_BGP_SINGLE-EXPORT__metric| () Int
  2)
(define-fun R3_BGP_IMPORT_Serial1_localpref_399 () Bool
  false)
(define-fun |1_R1-StaticRouteAdd-R1,Serial1 --> R3,Serial0| () Bool
  false)
(define-fun |0_CONTROL-FORWARDING_R1_Serial1| () Bool
  false)
(define-fun |0_0__R1_Serial0_OUTBOUND_SOFTAdd| () Bool
  true)
(define-fun |1_3.3.3.0/24OSPF-ExportRemoveSoft1_R3_OVERALL_BEST_None| () Bool
  true)
(define-fun |0_R4_BGP_SINGLE-EXPORT__localPref| () Int
  100)
(define-fun R2_BGP_IMPORT_Serial1_localpref_49 () Bool
  false)
(define-fun |1_1__R4_Serial1_OUTBOUND_SOFTAdd| () Bool
  true)
(define-fun |0_R1_OVERALL_BEST_None_history| () (_ BitVec 1)
  #b1)
(define-fun |1_R2_BGP_BEST_None_metric| () Int
  1)
(define-fun |1_R3_BGP_SINGLE-EXPORT__permitted| () Bool
  true)
(define-fun |1_R4_OVERALL_BEST_None_routerID| () Int
  33686018)
(define-fun |0_CONTROL-FORWARDING_R3_Serial1| () Bool
  false)
(define-fun |0_R1_OVERALL_BEST_None_prefixLength| () Int
  24)
(define-fun |0_R2_BGP_IMPORT_Serial1_localPref| () Int
  200)
(define-fun |0_CONTROL-FORWARDING_R3_Serial0| () Bool
  true)
(define-fun |0_R3_BGP_IMPORT_Serial1_permitted| () Bool
  false)
(define-fun |0_R2_BGP_IMPORT_Serial0_localPref| () Int
  0)
(define-fun |1_R3_OVERALL_BEST_None_prefixLength| () Int
  24)
(define-fun |0_R2-StaticRouteAdd-R2,Serial1 --> R4,Serial1| () Bool
  false)
(define-fun R2_BGP_IMPORT_Serial1_localpref_400 () Bool
  false)
(define-fun |1_icmp-type| () Int
  0)
(define-fun |0_0__R4_Serial1_OUTBOUND_SOFTAdd| () Bool
  true)
(define-fun |0_R4_OVERALL_BEST_None_metric| () Int
  2)
(define-fun |1_R4-StaticRouteAdd-R4,Serial1 --> R2,Serial1| () Bool
  false)
(define-fun |1_R2_OVERALL_BEST_None_localPref| () Int
  400)
(define-fun |1_R2_BGP_BEST_None_prefixLength| () Int
  24)
(define-fun |0_CONTROL-FORWARDING_R4_Serial0| () Bool
  true)
(define-fun |1_R2ImportFilterAddSoft1_R2_BGP_IMPORT_Serial0| () Bool
  true)
(define-fun |1_R4_OVERALL_BEST_None_prefixLength| () Int
  24)
(define-fun |1_R1_BGP_BEST_None_prefixLength| () Int
  24)
(define-fun |1_R2_BGP_SINGLE-EXPORT__localPref| () Int
  400)
(define-fun |0_0__R3_Serial1_OUTBOUND_SOFTAdd| () Bool
  true)
(define-fun |1_icmp-code| () Int
  0)
(define-fun |1_1__R3_Loopback0_INBOUND_SOFTAdd| () Bool
  true)
(define-fun R2_BGP_IMPORT_Serial0_localpref_50 () Bool
  true)
(define-fun |1_R3-StaticRouteAdd-R3,Serial0 --> R1,Serial1| () Bool
  false)
(define-fun |1_R1_OVERALL_BEST_None_localPref| () Int
  100)
(define-fun |1_R3_BGP_SINGLE-EXPORT__prefixLength| () Int
  24)
(define-fun R2_BGP_IMPORT_Serial0_localpref_199 () Bool
  true)
(define-fun |1_R2ImportFilterAddSoft1_R2_BGP_IMPORT_Serial1| () Bool
  true)
(define-fun R2_BGP_IMPORT_Serial0_localpref_399 () Bool
  true)
(define-fun |1_1__R1_Serial1_OUTBOUND_SOFTAdd| () Bool
  true)
(define-fun |0_2.2.2.0/24Stat-Conn-ExportRemoveSoft0_R2_OVERALL_BEST_None| () Bool
  true)
(define-fun |1_1_R1_OVERALL_BEST_NoneBGPExportAddSoft| () Bool
  true)
(define-fun |0_R3_OVERALL_BEST_None_localPref| () Int
  100)
(define-fun |1_1__R1_Serial1_INBOUND_SOFTAdd| () Bool
  true)
(define-fun |1_R1_OVERALL_BEST_None_adminDist| () Int
  0)
(define-fun |1_CONTROL-FORWARDING_R3_Serial0| () Bool
  false)
(define-fun |0_CONTROL-FORWARDING_R2_Serial1| () Bool
  false)
(define-fun R3_BGP_IMPORT_Serial1_localpref_49 () Bool
  false)
(define-fun |0_R1_OVERALL_BEST_None_routerID| () Int
  0)
(define-fun |1_R1_OVERALL_BEST_None_history| () (_ BitVec 1)
  #b1)
(define-fun |1_1__R1_Loopback0_INBOUND_SOFTAdd| () Bool
  true)
(define-fun |1_R1_OVERALL_BEST_None_metric| () Int
  0)
(define-fun |0_R2-StaticRouteAdd-R2,Serial0 --> R1,Serial0| () Bool
  false)
(define-fun |0_R3_BGP_SINGLE-EXPORT__localPref| () Int
  100)
(define-fun |0_R1_BGP_SINGLE-EXPORT__localPref| () Int
  100)
(define-fun |0_R2_BGP_BEST_None_prefixLength| () Int
  24)
(define-fun |0_R4_OVERALL_BEST_None_routerID| () Int
  50529027)
(define-fun |0_0_R1_OVERALL_BEST_NoneBGPExportAddSoft| () Bool
  true)
(define-fun |0__reachable-id_R4| () Int
  4)
(define-fun |0_0__R3_Serial1_INBOUND_SOFTAdd| () Bool
  true)
(define-fun |0_R3_OVERALL_BEST_None_prefixLength| () Int
  24)
(define-fun |0_R3_BGP_IMPORT_Serial1_localPref| () Int
  0)
(define-fun |1_R3_OVERALL_BEST_None_routerID| () Int
  67372036)
(define-fun |1_R2_BGP_IMPORT_Serial0_metric| () Int
  1)
(define-fun |0_R4-StaticRouteAdd-R4,Serial1 --> R2,Serial1| () Bool
  false)
(define-fun |1_1__R1_Loopback0_OUTBOUND_SOFTAdd| () Bool
  true)
(define-fun |0_R2_BGP_IMPORT_Serial0_metric| () Int
  0)
(define-fun |0__reachable-id_R3| () Int
  3)
(define-fun |0_R4_BGP_SINGLE-EXPORT__prefixLength| () Int
  24)
(define-fun |0_R4_BGP_SINGLE-EXPORT__metric| () Int
  3)
(define-fun |1_R2_OVERALL_BEST_None_prefixLength| () Int
  24)
(define-fun |0_0__R1_Serial1_INBOUND_SOFTAdd| () Bool
  true)
(define-fun R3_BGP_IMPORT_Serial1_localpref_199 () Bool
  false)
(define-fun |1_R4-StaticRouteAdd-R4,Serial0 --> R3,Serial1| () Bool
  false)
(define-fun |0_0__R2_Loopback0_INBOUND_SOFTAdd| () Bool
  true)
(define-fun |1_R1_BGP_BEST_None_routerID| () Int
  33686018)
(define-fun |1_R2_BGP_IMPORT_Serial0_localPref| () Int
  400)
(define-fun |0_0__R4_Serial0_INBOUND_SOFTAdd| () Bool
  true)
(define-fun |0_0__R3_Serial0_OUTBOUND_SOFTAdd| () Bool
  true)
(define-fun |1_R2_BGP_IMPORT_Serial1_metric| () Int
  0)
(define-fun |0_0__R3_Loopback0_INBOUND_SOFTAdd| () Bool
  true)
(define-fun |1_1__R3_Serial0_INBOUND_SOFTAdd| () Bool
  true)
(define-fun R3_BGP_IMPORT_Serial1_localpref_200 () Bool
  false)
(define-fun |0_ip-protocol| () Int
  0)
(define-fun |0_R2_OVERALL_BEST_None_localPref| () Int
  100)
(define-fun |0_R2_CONNECTED_IMPORT_Serial0_prefixLength| () Int
  24)
(define-fun |0_R1_CONNECTED_IMPORT_Serial0_prefixLength| () Int
  24)
(define-fun |1_R1_CONNECTED_IMPORT_Serial1_prefixLength| () Int
  24)
(define-fun |1__reachable_R1| () Bool
  true)
(define-fun |1__reachable_R4| () Bool
  true)
(define-fun |1__reachable_R3| () Bool
  true)
(define-fun |1__reachable_R2| () Bool
  true)
(define-fun |1_src-ip| () (_ BitVec 32)
  #xc0a82a01)
(define-fun |1_dst-ip| () (_ BitVec 32)
  #xc0a82b02)
(define-fun |1_R2_CONNECTED_BEST_None_prefixLength| () Int
  0)
(define-fun |1_DATA-FORWARDING_R1_Serial1| () Bool
  true)
(define-fun |1_DATA-FORWARDING_R1_Loopback0| () Bool
  false)
(define-fun |1_DATA-FORWARDING_R1_Serial0| () Bool
  false)
(define-fun |1_DATA-FORWARDING_R4_Serial1| () Bool
  true)
(define-fun |1_DATA-FORWARDING_R4_Serial0| () Bool
  false)
(define-fun |1_DATA-FORWARDING_R4_Loopback0| () Bool
  false)
(define-fun |1_DATA-FORWARDING_R3_Serial0| () Bool
  false)
(define-fun |1_DATA-FORWARDING_R3_Serial1| () Bool
  true)
(define-fun |1_DATA-FORWARDING_R3_Loopback0| () Bool
  false)
(define-fun |1_DATA-FORWARDING_R2_Serial0| () Bool
  true)
(define-fun |1_DATA-FORWARDING_R2_Serial1| () Bool
  false)
(define-fun |1_DATA-FORWARDING_R2_Loopback0| () Bool
  false)
(define-fun |1_CONTROL-FORWARDING_R1_Loopback0| () Bool
  false)
(define-fun |1_CONTROL-FORWARDING_R4_Loopback0| () Bool
  false)
(define-fun |1_CONTROL-FORWARDING_R3_Loopback0| () Bool
  false)
(define-fun |1_CONTROL-FORWARDING_R2_Loopback0| () Bool
  false)
(define-fun |1_R1_OVERALL_BEST_None_permitted| () Bool
  true)
(define-fun |1_R2_OVERALL_BEST_None_permitted| () Bool
  true)
(define-fun |1_R1_CONNECTED_IMPORT_Serial1_choice| () Bool
  true)
(define-fun |1_R1_BGP_IMPORT_Serial0_choice| () Bool
  true)
(define-fun |1_R1_BGP_IMPORT_Serial1_choice| () Bool
  false)
(define-fun |1_R4_BGP_IMPORT_Serial1_choice| () Bool
  true)
(define-fun |1_R4_BGP_IMPORT_Serial0_choice| () Bool
  false)
(define-fun |1_R3_BGP_IMPORT_Serial0_choice| () Bool
  false)
(define-fun |1_R3_BGP_IMPORT_Serial1_choice| () Bool
  true)
(define-fun |1_R2_BGP_IMPORT_Serial0_choice| () Bool
  true)
(define-fun |1_R2_BGP_IMPORT_Serial1_choice| () Bool
  false)
(define-fun |1_R1_CONNECTED_BEST_None_permitted| () Bool
  true)
(define-fun |1_R1_CONNECTED_BEST_None_prefixLength| () Int
  24)
(define-fun |1_R1_BGP_BEST_None_permitted| () Bool
  true)
(define-fun |1_R4_OVERALL_BEST_None_permitted| () Bool
  true)
(define-fun |1_R3_OVERALL_BEST_None_permitted| () Bool
  true)
(define-fun |1_R2_BGP_BEST_None_permitted| () Bool
  true)
(define-fun |1_R1_CONNECTED_IMPORT_Serial1_permitted| () Bool
  true)
(define-fun |1_R2_CONNECTED_BEST_None_permitted| () Bool
  false)
(define-fun |0__reachable_R1| () Bool
  true)
(define-fun |0__reachable_R4| () Bool
  true)
(define-fun |0__reachable_R3| () Bool
  true)
(define-fun |0__reachable_R2| () Bool
  true)
(define-fun |0__reachable-id_R2| () Int
  1)
(define-fun |0_src-ip| () (_ BitVec 32)
  #xc0a82a01)
(define-fun |0_dst-ip| () (_ BitVec 32)
  #xc0a82a02)
(define-fun |0_DATA-FORWARDING_R1_Serial1| () Bool
  false)
(define-fun |0_DATA-FORWARDING_R1_Loopback0| () Bool
  false)
(define-fun |0_DATA-FORWARDING_R1_Serial0| () Bool
  true)
(define-fun |0_DATA-FORWARDING_R4_Serial1| () Bool
  false)
(define-fun |0_DATA-FORWARDING_R4_Serial0| () Bool
  true)
(define-fun |0_DATA-FORWARDING_R4_Loopback0| () Bool
  false)
(define-fun |0_DATA-FORWARDING_R3_Serial0| () Bool
  true)
(define-fun |0_DATA-FORWARDING_R3_Serial1| () Bool
  false)
(define-fun |0_DATA-FORWARDING_R3_Loopback0| () Bool
  false)
(define-fun |0_DATA-FORWARDING_R2_Serial0| () Bool
  false)
(define-fun |0_DATA-FORWARDING_R2_Serial1| () Bool
  false)
(define-fun |0_DATA-FORWARDING_R2_Loopback0| () Bool
  false)
(define-fun |0_CONTROL-FORWARDING_R1_Loopback0| () Bool
  false)
(define-fun |0_CONTROL-FORWARDING_R4_Loopback0| () Bool
  false)
(define-fun |0_CONTROL-FORWARDING_R3_Loopback0| () Bool
  false)
(define-fun |0_CONTROL-FORWARDING_R2_Loopback0| () Bool
  false)
(define-fun |0_R1_OVERALL_BEST_None_permitted| () Bool
  true)
(define-fun |0_R2_OVERALL_BEST_None_permitted| () Bool
  true)
(define-fun |0_R1_CONNECTED_IMPORT_Serial0_choice| () Bool
  true)
(define-fun |0_R1_BGP_IMPORT_Serial1_choice| () Bool
  true)
(define-fun |0_R1_BGP_IMPORT_Serial0_choice| () Bool
  false)
(define-fun |0_R4_BGP_IMPORT_Serial1_choice| () Bool
  false)
(define-fun |0_R4_BGP_IMPORT_Serial0_choice| () Bool
  true)
(define-fun |0_R3_BGP_IMPORT_Serial1_choice| () Bool
  false)
(define-fun |0_R3_BGP_IMPORT_Serial0_choice| () Bool
  true)
(define-fun |0_R2_CONNECTED_IMPORT_Serial0_choice| () Bool
  true)
(define-fun |0_R2_BGP_IMPORT_Serial0_choice| () Bool
  false)
(define-fun |0_R2_BGP_IMPORT_Serial1_choice| () Bool
  true)
(define-fun |0_R1_CONNECTED_BEST_None_permitted| () Bool
  true)
(define-fun |0_R1_CONNECTED_BEST_None_prefixLength| () Int
  24)
(define-fun |0_R1_BGP_BEST_None_permitted| () Bool
  true)
(define-fun |0_R4_OVERALL_BEST_None_permitted| () Bool
  true)
(define-fun |0_R3_OVERALL_BEST_None_permitted| () Bool
  true)
(define-fun |0_R2_CONNECTED_BEST_None_permitted| () Bool
  true)
(define-fun |0_R2_CONNECTED_BEST_None_prefixLength| () Int
  24)
(define-fun |0_R2_BGP_BEST_None_permitted| () Bool
  true)
(define-fun |0_R1_CONNECTED_IMPORT_Serial0_permitted| () Bool
  true)
(define-fun |0_R2_CONNECTED_IMPORT_Serial0_permitted| () Bool
  true)
(define-fun |0_FAILED-EDGE_R1_Loopback0| () Int
  0)
(define-fun |0_FAILED-EDGE_R3_Loopback0| () Int
  0)
(define-fun |0_FAILED-EDGE_R1_R3| () Int
  0)
(define-fun |0_FAILED-EDGE_R3_R4| () Int
  0)
(define-fun |0_FAILED-EDGE_R4_Loopback0| () Int
  0)
(define-fun |0_FAILED-EDGE_R1_R2| () Int
  0)
(define-fun |0_FAILED-EDGE_R2_Loopback0| () Int
  0)
(define-fun |0_FAILED-EDGE_R2_R4| () Int
  0)